1 100 350
1 2 1 5 1 4 2 2 1 1
3
5 6 6
0 40.0 50.0 0.0 0.0 0 240
2 25.0 85.0 10.0 20.0 0 191 30 0 0 0 0 0 0 1 1 0 1
3 22.0 75.0 10.0 30.0 0 199 2 1 1 0 0 1 1 0 1 1 0
4 22.0 85.0 10.0 10.0 0 190 73 0 0 0 1 0 0 0 0 1 0
5 20.0 80.0 10.0 40.0 141 171 15 0 0 0 1 0 0 1 0 0 0
6 20.0 85.0 10.0 20.0 0 189 13 0 0 0 0 0 1 0 0 0 0
7 18.0 75.0 10.0 20.0 95 125 49 1 0 0 0 0 0 0 0 1 0
8 15.0 75.0 10.0 20.0 0 194 6 0 0 0 1 0 0 0 0 0 0
9 15.0 80.0 10.0 10.0 91 121 50 0 0 0 0 0 1 0 0 1 0
10 10.0 35.0 10.0 20.0 91 121 91 0 0 1 0 0 0 1 0 0 0
11 10.0 40.0 10.0 30.0 119 149 30 0 0 1 0 1 0 0 0 0 0
12 8.0 40.0 10.0 40.0 59 89 63 0 0 0 1 0 1 1 0 0 0
13 8.0 45.0 10.0 20.0 0 197 17 0 0 0 0 0 1 0 0 0 0
14 5.0 35.0 10.0 10.0 142 172 52 0 0 0 1 1 0 0 1 0 0
15 5.0 45.0 10.0 10.0 0 194 51 1 1 0 0 0 0 0 0 0 1
16 2.0 40.0 10.0 20.0 58 88 18 0 1 0 0 1 1 0 0 0 0
17 0.0 40.0 10.0 20.0 0 188 68 1 0 0 0 1 1 0 0 1 0
18 0.0 45.0 10.0 20.0 149 179 9 0 0 0 0 0 0 0 0 0 1
19 44.0 5.0 10.0 20.0 0 184 6 0 0 0 0 0 1 0 0 0 0
20 42.0 10.0 10.0 40.0 0 189 71 0 0 1 1 0 0 0 0 0 0
21 42.0 15.0 10.0 10.0 0 194 59 0 0 0 1 0 0 0 0 0 0
22 40.0 5.0 10.0 10.0 0 185 44 0 0 0 0 1 0 0 0 0 0
23 40.0 15.0 10.0 40.0 92 122 63 0 0 0 0 0 0 0 0 1 0
24 38.0 5.0 10.0 30.0 65 95 32 1 0 0 0 0 0 0 0 0 1
25 38.0 15.0 10.0 10.0 0 194 70 1 0 0 0 0 1 0 0 0 0
26 35.0 5.0 10.0 20.0 154 184 29 0 1 1 0 0 0 1 0 0 0
27 95.0 30.0 10.0 30.0 0 171 3 0 0 1 0 0 0 0 0 0 0
28 95.0 35.0 10.0 20.0 62 92 61 0 0 0 0 0 1 0 0 0 0
29 92.0 30.0 10.0 10.0 0 174 18 0 0 1 0 0 0 1 0 0 0
30 90.0 35.0 10.0 10.0 0 177 9 0 0 0 0 1 0 1 0 0 1
31 88.0 30.0 10.0 10.0 74 104 60 0 0 0 0 0 1 0 0 0 0
32 88.0 35.0 10.0 20.0 0 179 53 0 0 0 0 0 0 1 0 1 0
33 87.0 30.0 10.0 10.0 0 178 99 0 0 0 1 0 0 1 0 0 0
34 85.0 25.0 10.0 10.0 51 81 38 0 0 0 1 0 0 0 0 0 0
35 85.0 35.0 10.0 30.0 0 182 73 0 0 0 0 1 1 0 0 0 0
36 67.0 85.0 10.0 20.0 139 169 93 0 0 0 1 1 1 0 0 1 0
37 65.0 85.0 10.0 40.0 43 73 23 0 0 0 0 0 1 1 0 0 1
38 65.0 82.0 10.0 10.0 0 189 69 1 0 0 1 0 0 0 0 0 1
39 62.0 80.0 10.0 30.0 75 105 84 0 0 0 0 0 0 0 0 1 1
40 60.0 80.0 10.0 10.0 37 67 26 0 0 0 0 0 1 0 0 0 0
41 60.0 85.0 10.0 30.0 85 115 88 0 0 0 0 0 1 0 0 0 0
42 58.0 75.0 10.0 20.0 92 122 16 0 0 0 0 0 1 0 0 0 0
43 55.0 80.0 10.0 10.0 33 63 31 0 0 0 0 0 1 0 0 1 0
44 55.0 85.0 10.0 20.0 0 191 23 0 0 0 0 0 0 0 1 0 0
45 55.0 82.0 10.0 10.0 64 94 86 0 1 0 1 0 1 0 0 0 0
46 20.0 82.0 10.0 10.0 37 67 46 0 0 0 0 0 1 0 0 0 0
47 18.0 80.0 10.0 10.0 0 192 5 0 0 0 0 0 0 1 0 0 0
48 2.0 45.0 10.0 10.0 0 191 29 0 0 0 1 0 0 0 1 0 0
49 42.0 5.0 10.0 10.0 0 184 48 0 0 1 0 0 0 1 0 1 0
50 42.0 12.0 10.0 10.0 104 134 80 0 0 0 1 0 0 1 1 0 0
51 72.0 35.0 10.0 30.0 0 194 99 0 0 1 0 1 0 0 0 1 1
52 55.0 20.0 10.0 19.0 0 196 66 0 0 0 0 0 0 0 0 1 1
53 25.0 30.0 10.0 3.0 0 205 21 0 0 0 0 0 1 0 0 0 0
54 20.0 50.0 10.0 5.0 91 121 32 0 0 1 0 0 0 1 1 1 0
55 55.0 60.0 10.0 16.0 0 211 16 0 0 0 0 1 1 1 1 0 0
56 30.0 60.0 10.0 16.0 140 170 97 0 0 0 0 0 1 0 0 0 0
57 50.0 35.0 10.0 19.0 130 160 63 0 0 0 0 0 0 0 1 0 0
58 30.0 25.0 10.0 23.0 0 203 10 0 0 1 0 0 0 0 0 0 0
59 15.0 10.0 10.0 20.0 152 182 33 1 0 0 0 0 0 0 1 0 0
60 10.0 20.0 10.0 19.0 0 187 16 0 0 1 1 0 0 0 0 0 0
61 15.0 60.0 10.0 17.0 0 203 56 0 0 0 0 0 1 0 0 0 0
62 45.0 65.0 10.0 9.0 0 214 0 0 0 0 0 0 1 0 0 0 0
63 65.0 35.0 10.0 3.0 52 82 85 1 0 0 0 1 0 0 0 0 0
64 65.0 20.0 10.0 6.0 0 190 90 0 0 0 0 0 1 0 0 0 0
65 45.0 30.0 10.0 17.0 53 83 61 1 1 0 0 0 0 0 1 0 0
66 35.0 40.0 10.0 16.0 11 41 70 0 1 0 1 0 1 0 0 0 1
67 41.0 37.0 10.0 16.0 133 163 81 1 0 0 1 0 0 0 0 0 0
68 64.0 42.0 10.0 9.0 70 100 84 0 1 0 0 0 0 0 0 0 0
69 40.0 60.0 10.0 21.0 144 174 68 0 0 0 0 0 0 1 0 0 1
70 31.0 52.0 10.0 27.0 41 71 26 0 0 0 0 0 1 0 0 0 0
71 35.0 69.0 10.0 23.0 180 210 96 0 0 0 1 0 1 0 0 0 0
72 65.0 55.0 10.0 14.0 0 204 6 0 0 1 0 1 0 0 0 0 0
73 63.0 65.0 10.0 8.0 0 202 41 0 0 0 0 1 0 1 0 0 0
74 2.0 60.0 10.0 5.0 0 190 18 0 0 0 0 0 1 0 0 0 0
75 20.0 20.0 10.0 8.0 141 171 27 1 1 0 0 0 0 0 0 0 0
76 5.0 5.0 10.0 16.0 0 172 79 0 0 0 0 1 0 0 0 0 0
77 60.0 12.0 10.0 31.0 75 105 1 0 0 0 1 1 1 0 1 0 0
78 23.0 3.0 10.0 7.0 150 180 23 0 1 0 0 0 1 0 0 0 1
79 8.0 56.0 10.0 27.0 90 120 16 0 0 1 0 0 0 0 0 0 0
80 6.0 68.0 10.0 30.0 89 119 52 0 0 0 0 0 0 0 1 0 0
81 47.0 47.0 10.0 13.0 192 222 40 0 0 0 0 0 1 0 0 0 0
82 49.0 58.0 10.0 10.0 0 217 6 0 0 1 0 0 0 0 0 0 0
83 27.0 43.0 10.0 9.0 0 215 56 0 0 0 0 0 0 1 1 0 0
84 37.0 31.0 10.0 14.0 0 210 43 1 0 0 1 0 0 0 0 0 0
85 57.0 29.0 10.0 18.0 96 126 65 0 1 1 1 0 0 1 0 1 0
86 63.0 23.0 10.0 2.0 0 194 31 0 0 1 0 0 0 0 1 0 0
87 21.0 24.0 10.0 28.0 0 197 35 0 1 0 0 0 0 0 0 0 1
88 12.0 24.0 10.0 13.0 90 120 1 0 0 0 0 0 1 0 0 0 0
89 24.0 58.0 10.0 19.0 67 97 48 0 0 0 0 0 0 1 0 0 0
90 67.0 5.0 10.0 25.0 0 177 55 0 0 0 0 0 1 0 0 0 0
91 37.0 47.0 10.0 6.0 0 225 80 0 0 0 1 0 0 0 1 0 0
92 49.0 42.0 10.0 13.0 0 217 58 0 1 0 0 1 0 0 1 1 1
93 53.0 43.0 10.0 14.0 14 44 61 0 0 0 0 0 1 0 1 0 0
94 61.0 52.0 10.0 3.0 178 208 12 0 0 0 0 0 0 0 0 0 1
95 57.0 48.0 10.0 23.0 0 212 47 0 0 0 0 1 1 0 0 0 0
96 56.0 37.0 10.0 6.0 0 209 26 0 0 0 0 0 1 0 0 0 1
97 55.0 54.0 10.0 26.0 0 214 16 0 0 0 0 0 1 0 0 0 0
98 4.0 18.0 10.0 35.0 0 181 91 0 1 0 0 0 0 0 0 0 0
99 26.0 52.0 10.0 9.0 0 215 16 0 1 0 0 0 0 1 1 0 1
100 26.0 35.0 10.0 15.0 77 107 27 0 0 0 0 0 1 0 0 0 0
101 31.0 67.0 10.0 3.0 180 210 17 0 1 0 1 0 0 0 0 0 1